c FILE: i080-235

c SOURCE: From steinlib

c DESCRIPTION: Steinlib instance with 80 nodes and 160 edges.

p edge 80 160
e 1 9
e 1 10
e 1 15
e 1 16
e 1 43
e 1 45
e 1 78
e 2 47
e 2 56
e 3 38
e 3 51
e 3 60
e 4 21
e 5 43
e 6 8
e 6 22
e 6 34
e 6 43
e 6 47
e 6 66
e 7 23
e 7 24
e 7 28
e 7 59
e 7 66
e 7 73
e 8 19
e 8 21
e 8 32
e 8 44
e 8 48
e 8 55
e 8 60
e 8 65
e 8 66
e 8 78
e 9 31
e 9 39
e 9 40
e 9 55
e 9 63
e 9 72
e 9 74
e 10 13
e 10 17
e 10 19
e 10 25
e 10 51
e 10 52
e 10 60
e 10 63
e 10 70
e 11 33
e 11 48
e 12 58
e 12 64
e 12 75
e 13 20
e 13 27
e 13 70
e 14 32
e 14 36
e 14 42
e 14 55
e 14 60
e 14 72
e 15 64
e 16 24
e 16 31
e 16 36
e 16 50
e 16 59
e 16 73
e 16 75
e 16 80
e 17 47
e 17 57
e 18 20
e 18 34
e 18 50
e 19 23
e 19 72
e 20 59
e 20 68
e 21 46
e 21 69
e 22 31
e 23 41
e 23 48
e 23 57
e 23 68
e 24 68
e 25 52
e 25 57
e 25 62
e 25 63
e 26 62
e 26 67
e 26 71
e 29 34
e 29 47
e 29 48
e 30 52
e 31 52
e 31 59
e 31 73
e 31 76
e 32 38
e 32 75
e 33 45
e 33 65
e 34 56
e 35 53
e 35 74
e 36 40
e 36 56
e 36 58
e 36 61
e 36 63
e 37 47
e 37 62
e 38 68
e 39 70
e 39 78
e 40 52
e 41 79
e 42 53
e 42 55
e 42 65
e 42 71
e 43 58
e 44 58
e 44 71
e 45 47
e 45 54
e 46 57
e 47 56
e 47 68
e 49 52
e 49 62
e 50 67
e 50 68
e 50 70
e 50 79
e 51 55
e 52 66
e 53 65
e 53 77
e 54 67
e 55 61
e 57 69
e 59 78
e 61 75
e 65 77
e 66 75
e 67 72
e 68 78
e 70 76
e 71 76
e 72 74
